11
1 10
2 10
3 3
4 10
5 8
6 7
7 6
8 8
9 10
10 1
29
0 1 90
1 0 90
0 2 65
2 0 65
0 3 14
3 0 14
0 4 22
4 0 22
0 5 51
5 0 51
0 6 49
6 0 49
0 7 87
7 0 87
0 8 40
8 0 40
0 9 44
9 0 44
0 10 31
10 0 31
1 6 1
2 8 35
3 6 37
4 7 43
4 8 70
6 7 7
7 9 69
7 10 2
8 9 79
